106
0 42 71 56 49 77 45 24 14 101 
27 9 91 47 1 94 29 11 12 23 
68 54 51 16 33 79 81 93 92 76 
88 64 58 52 38 2 4 48 70 6 
104 13 74 50 26 3 86 98 41 87 
19 67 60 105 63 89 28 82 21 103 
59 72 78 65 100 34 10 22 66 90 
80 53 75 96 5 37 39 55 102 8 
61 7 69 62 17 40 15 35 32 44 
30 97 83 20 25 85 36 31 73 84 
57 18 43 46 99 95 
